15
2 0 1
3 0 3
4 1 3
5 0 1
5 1 3
5 4 2
6 0 1
6 2 2
6 5 2
7 0 2
7 1 1
7 3 3
7 5 2
8 0 3
8 1 3
9 2 3
9 5 2
9 6 1
9 7 3
10 2 3
10 4 3
10 8 3
10 9 3
11 3 3
11 4 2
11 6 3
11 8 2
11 10 1
12 2 3
12 5 2
12 6 3
12 7 3
12 9 2
12 10 1
13 4 3
13 5 1
13 10 3
13 11 2
13 12 3
14 0 3
14 1 2
14 2 1
14 5 2
14 6 2
14 9 2
14 11 2
